(set-logic QF_NRA)
(set-info :source |Benchmarks generated from hycomp (https://es-static.fbk.eu/tools/hycomp/). BMC instances of non-linear hybrid automata taken from: Alessandro Cimatti, Sergio Mover, Stefano Tonetta, A quantifier-free SMT encoding of non-linear hybrid automata, FMCAD 2012 and Alessandro Cimatti, Sergio Mover, Stefano Tonetta, Quantier-free encoding of invariants for Hybrid Systems, Formal Methods in System Design. This instance solves a BMC problem of depth 0 and uses the quantifier free encoding with lemmas encoding. Contacts: Sergio Mover (mover@fbk.eu), Stefano Tonetta (tonettas@fbk.eu), Alessandro Cimatti (cimatti@fbk.eu).|)
(set-info :smt-lib-version 2.0)
(set-info :category "industrial")
(set-info :status unsat)
;; MathSAT API call trace
;; generated on Mon Mar 19 10:40:43 2012
(declare-fun train1.timer__AT0 () Real)
(declare-fun train1.mode.0__AT0 () Bool)
(declare-fun train1.event_is_timed__AT0 () Bool)
(declare-fun train2.time__AT0 () Real)
(declare-fun train2.delta__AT0 () Real)
(declare-fun train2.timer__AT0 () Real)
(declare-fun train1.time__AT0 () Real)
(declare-fun train1.delta__AT0 () Real)
(declare-fun train2.front_position__AT0 () Real)
(declare-fun train1.acceleration__AT0 () Real)
(declare-fun train2.mode.0__AT0 () Bool)
(declare-fun train1.front_position__AT0 () Real)
(declare-fun train1.speed__AT0 () Real)
(declare-fun train2.event_is_timed__AT0 () Bool)
(declare-fun train2.speed__AT0 () Real)
(declare-fun train2.acceleration__AT0 () Real)
(assert (let ((.def_342 (+ train2.timer__AT0 train2.delta__AT0)))
(let ((.def_353 (<= .def_342 8.0 )))
(let ((.def_359 (not .def_353)))
(let ((.def_85 (<= train2.timer__AT0 8.0 )))
(let ((.def_360 (or .def_85 .def_359)))
(let ((.def_357 (<= 8.0 .def_342)))
(let ((.def_355 (<= 8.0 train2.timer__AT0)))
(let ((.def_356 (not .def_355)))
(let ((.def_358 (or .def_356 .def_357)))
(let ((.def_361 (and .def_358 .def_360)))
(let ((.def_354 (and .def_85 .def_353)))
(let ((.def_362 (and .def_354 .def_361)))
(let ((.def_349 (<= train2.timer__AT0 0.0 )))
(let ((.def_347 (<= .def_342 0.0 )))
(let ((.def_348 (not .def_347)))
(let ((.def_350 (or .def_348 .def_349)))
(let ((.def_84 (<= 0.0 train2.timer__AT0)))
(let ((.def_345 (not .def_84)))
(let ((.def_343 (<= 0.0 .def_342)))
(let ((.def_346 (or .def_343 .def_345)))
(let ((.def_351 (and .def_346 .def_350)))
(let ((.def_344 (and .def_84 .def_343)))
(let ((.def_352 (and .def_344 .def_351)))
(let ((.def_363 (and .def_352 .def_362)))
(let ((.def_304 (* train2.acceleration__AT0 train2.delta__AT0)))
(let ((.def_305 (+ train2.speed__AT0 .def_304)))
(let ((.def_322 (<= .def_305 (/ 417 5))))
(let ((.def_334 (not .def_322)))
(let ((.def_81 (<= train2.speed__AT0 (/ 417 5))))
(let ((.def_335 (or .def_81 .def_334)))
(let ((.def_328 (<= (/ 417 5) train2.speed__AT0)))
(let ((.def_332 (not .def_328)))
(let ((.def_326 (<= (/ 417 5) .def_305)))
(let ((.def_333 (or .def_326 .def_332)))
(let ((.def_336 (and .def_333 .def_335)))
(let ((.def_90 (<= train2.acceleration__AT0 0.0 )))
(let ((.def_337 (or .def_90 .def_336)))
(let ((.def_327 (not .def_326)))
(let ((.def_329 (or .def_327 .def_328)))
(let ((.def_324 (not .def_81)))
(let ((.def_325 (or .def_322 .def_324)))
(let ((.def_330 (and .def_325 .def_329)))
(let ((.def_277 (<= 0.0 train2.acceleration__AT0)))
(let ((.def_331 (or .def_277 .def_330)))
(let ((.def_338 (and .def_331 .def_337)))
(let ((.def_323 (and .def_81 .def_322)))
(let ((.def_339 (and .def_323 .def_338)))
(let ((.def_308 (<= .def_305 0.0 )))
(let ((.def_315 (not .def_308)))
(let ((.def_261 (<= train2.speed__AT0 0.0 )))
(let ((.def_316 (or .def_261 .def_315)))
(let ((.def_306 (<= 0.0 .def_305)))
(let ((.def_80 (<= 0.0 train2.speed__AT0)))
(let ((.def_248 (not .def_80)))
(let ((.def_314 (or .def_248 .def_306)))
(let ((.def_317 (and .def_314 .def_316)))
(let ((.def_318 (or .def_90 .def_317)))
(let ((.def_310 (not .def_306)))
(let ((.def_311 (or .def_80 .def_310)))
(let ((.def_262 (not .def_261)))
(let ((.def_309 (or .def_262 .def_308)))
(let ((.def_312 (and .def_309 .def_311)))
(let ((.def_313 (or .def_277 .def_312)))
(let ((.def_319 (and .def_313 .def_318)))
(let ((.def_307 (and .def_80 .def_306)))
(let ((.def_320 (and .def_307 .def_319)))
(let ((.def_236 (* (/ 1 2) train2.acceleration__AT0)))
(let ((.def_243 (* 2.0 .def_236)))
(let ((.def_285 (* (- 1.0) .def_243)))
(let ((.def_286 (* train2.delta__AT0 .def_285)))
(let ((.def_289 (<= .def_286 train2.speed__AT0)))
(let ((.def_296 (not .def_289)))
(let ((.def_297 (or .def_80 .def_296)))
(let ((.def_287 (<= train2.speed__AT0 .def_286)))
(let ((.def_295 (or .def_262 .def_287)))
(let ((.def_298 (and .def_295 .def_297)))
(let ((.def_299 (or .def_277 .def_298)))
(let ((.def_291 (not .def_287)))
(let ((.def_292 (or .def_261 .def_291)))
(let ((.def_290 (or .def_248 .def_289)))
(let ((.def_293 (and .def_290 .def_292)))
(let ((.def_294 (or .def_90 .def_293)))
(let ((.def_300 (and .def_294 .def_299)))
(let ((.def_288 (and .def_261 .def_287)))
(let ((.def_301 (and .def_288 .def_300)))
(let ((.def_244 (* train2.delta__AT0 .def_243)))
(let ((.def_245 (+ train2.speed__AT0 .def_244)))
(let ((.def_259 (<= .def_245 0.0 )))
(let ((.def_260 (not .def_259)))
(let ((.def_280 (or .def_260 .def_261)))
(let ((.def_246 (<= 0.0 .def_245)))
(let ((.def_279 (or .def_246 .def_248)))
(let ((.def_281 (and .def_279 .def_280)))
(let ((.def_282 (or .def_90 .def_281)))
(let ((.def_247 (not .def_246)))
(let ((.def_275 (or .def_80 .def_247)))
(let ((.def_274 (or .def_259 .def_262)))
(let ((.def_276 (and .def_274 .def_275)))
(let ((.def_278 (or .def_276 .def_277)))
(let ((.def_283 (and .def_278 .def_282)))
(let ((.def_273 (and .def_80 .def_246)))
(let ((.def_284 (and .def_273 .def_283)))
(let ((.def_302 (or .def_284 .def_301)))
(let ((.def_238 (* train2.speed__AT0 train2.delta__AT0)))
(let ((.def_235 (* train2.delta__AT0 train2.delta__AT0)))
(let ((.def_237 (* .def_235 .def_236)))
(let ((.def_239 (+ .def_237 .def_238)))
(let ((.def_240 (+ train2.front_position__AT0 .def_239)))
(let ((.def_253 (<= .def_240 0.0 )))
(let ((.def_267 (not .def_253)))
(let ((.def_251 (<= train2.front_position__AT0 0.0 )))
(let ((.def_268 (or .def_251 .def_267)))
(let ((.def_78 (<= 0.0 train2.front_position__AT0)))
(let ((.def_265 (not .def_78)))
(let ((.def_241 (<= 0.0 .def_240)))
(let ((.def_266 (or .def_241 .def_265)))
(let ((.def_269 (and .def_266 .def_268)))
(let ((.def_263 (or .def_260 .def_262)))
(let ((.def_264 (not .def_263)))
(let ((.def_270 (or .def_264 .def_269)))
(let ((.def_255 (not .def_241)))
(let ((.def_256 (or .def_78 .def_255)))
(let ((.def_252 (not .def_251)))
(let ((.def_254 (or .def_252 .def_253)))
(let ((.def_257 (and .def_254 .def_256)))
(let ((.def_249 (or .def_247 .def_248)))
(let ((.def_250 (not .def_249)))
(let ((.def_258 (or .def_250 .def_257)))
(let ((.def_271 (and .def_258 .def_270)))
(let ((.def_242 (and .def_78 .def_241)))
(let ((.def_272 (and .def_242 .def_271)))
(let ((.def_303 (and .def_272 .def_302)))
(let ((.def_321 (and .def_303 .def_320)))
(let ((.def_340 (and .def_321 .def_339)))
(let ((.def_94 (<= train2.acceleration__AT0 (/ 7 10))))
(let ((.def_93 (<= (- (/ 7 10)) train2.acceleration__AT0)))
(let ((.def_95 (and .def_93 .def_94)))
(let ((.def_96 (or train2.mode.0__AT0 .def_95)))
(let ((.def_89 (<= (- (/ 7 5)) train2.acceleration__AT0)))
(let ((.def_91 (and .def_89 .def_90)))
(let ((.def_46 (not train2.mode.0__AT0)))
(let ((.def_92 (or .def_46 .def_91)))
(let ((.def_97 (and .def_92 .def_96)))
(let ((.def_341 (and .def_97 .def_340)))
(let ((.def_364 (and .def_341 .def_363)))
(let ((.def_211 (+ train1.timer__AT0 train1.delta__AT0)))
(let ((.def_222 (<= .def_211 8.0 )))
(let ((.def_228 (not .def_222)))
(let ((.def_58 (<= train1.timer__AT0 8.0 )))
(let ((.def_229 (or .def_58 .def_228)))
(let ((.def_226 (<= 8.0 .def_211)))
(let ((.def_224 (<= 8.0 train1.timer__AT0)))
(let ((.def_225 (not .def_224)))
(let ((.def_227 (or .def_225 .def_226)))
(let ((.def_230 (and .def_227 .def_229)))
(let ((.def_223 (and .def_58 .def_222)))
(let ((.def_231 (and .def_223 .def_230)))
(let ((.def_218 (<= train1.timer__AT0 0.0 )))
(let ((.def_216 (<= .def_211 0.0 )))
(let ((.def_217 (not .def_216)))
(let ((.def_219 (or .def_217 .def_218)))
(let ((.def_56 (<= 0.0 train1.timer__AT0)))
(let ((.def_214 (not .def_56)))
(let ((.def_212 (<= 0.0 .def_211)))
(let ((.def_215 (or .def_212 .def_214)))
(let ((.def_220 (and .def_215 .def_219)))
(let ((.def_213 (and .def_56 .def_212)))
(let ((.def_221 (and .def_213 .def_220)))
(let ((.def_232 (and .def_221 .def_231)))
(let ((.def_173 (* train1.acceleration__AT0 train1.delta__AT0)))
(let ((.def_174 (+ train1.speed__AT0 .def_173)))
(let ((.def_191 (<= .def_174 (/ 417 5))))
(let ((.def_203 (not .def_191)))
(let ((.def_52 (<= train1.speed__AT0 (/ 417 5))))
(let ((.def_204 (or .def_52 .def_203)))
(let ((.def_197 (<= (/ 417 5) train1.speed__AT0)))
(let ((.def_201 (not .def_197)))
(let ((.def_195 (<= (/ 417 5) .def_174)))
(let ((.def_202 (or .def_195 .def_201)))
(let ((.def_205 (and .def_202 .def_204)))
(let ((.def_66 (<= train1.acceleration__AT0 0.0 )))
(let ((.def_206 (or .def_66 .def_205)))
(let ((.def_196 (not .def_195)))
(let ((.def_198 (or .def_196 .def_197)))
(let ((.def_193 (not .def_52)))
(let ((.def_194 (or .def_191 .def_193)))
(let ((.def_199 (and .def_194 .def_198)))
(let ((.def_146 (<= 0.0 train1.acceleration__AT0)))
(let ((.def_200 (or .def_146 .def_199)))
(let ((.def_207 (and .def_200 .def_206)))
(let ((.def_192 (and .def_52 .def_191)))
(let ((.def_208 (and .def_192 .def_207)))
(let ((.def_177 (<= .def_174 0.0 )))
(let ((.def_184 (not .def_177)))
(let ((.def_130 (<= train1.speed__AT0 0.0 )))
(let ((.def_185 (or .def_130 .def_184)))
(let ((.def_175 (<= 0.0 .def_174)))
(let ((.def_48 (<= 0.0 train1.speed__AT0)))
(let ((.def_117 (not .def_48)))
(let ((.def_183 (or .def_117 .def_175)))
(let ((.def_186 (and .def_183 .def_185)))
(let ((.def_187 (or .def_66 .def_186)))
(let ((.def_179 (not .def_175)))
(let ((.def_180 (or .def_48 .def_179)))
(let ((.def_131 (not .def_130)))
(let ((.def_178 (or .def_131 .def_177)))
(let ((.def_181 (and .def_178 .def_180)))
(let ((.def_182 (or .def_146 .def_181)))
(let ((.def_188 (and .def_182 .def_187)))
(let ((.def_176 (and .def_48 .def_175)))
(let ((.def_189 (and .def_176 .def_188)))
(let ((.def_105 (* (/ 1 2) train1.acceleration__AT0)))
(let ((.def_112 (* 2.0 .def_105)))
(let ((.def_154 (* (- 1.0) .def_112)))
(let ((.def_155 (* train1.delta__AT0 .def_154)))
(let ((.def_158 (<= .def_155 train1.speed__AT0)))
(let ((.def_165 (not .def_158)))
(let ((.def_166 (or .def_48 .def_165)))
(let ((.def_156 (<= train1.speed__AT0 .def_155)))
(let ((.def_164 (or .def_131 .def_156)))
(let ((.def_167 (and .def_164 .def_166)))
(let ((.def_168 (or .def_146 .def_167)))
(let ((.def_160 (not .def_156)))
(let ((.def_161 (or .def_130 .def_160)))
(let ((.def_159 (or .def_117 .def_158)))
(let ((.def_162 (and .def_159 .def_161)))
(let ((.def_163 (or .def_66 .def_162)))
(let ((.def_169 (and .def_163 .def_168)))
(let ((.def_157 (and .def_130 .def_156)))
(let ((.def_170 (and .def_157 .def_169)))
(let ((.def_113 (* train1.delta__AT0 .def_112)))
(let ((.def_114 (+ train1.speed__AT0 .def_113)))
(let ((.def_128 (<= .def_114 0.0 )))
(let ((.def_129 (not .def_128)))
(let ((.def_149 (or .def_129 .def_130)))
(let ((.def_115 (<= 0.0 .def_114)))
(let ((.def_148 (or .def_115 .def_117)))
(let ((.def_150 (and .def_148 .def_149)))
(let ((.def_151 (or .def_66 .def_150)))
(let ((.def_116 (not .def_115)))
(let ((.def_144 (or .def_48 .def_116)))
(let ((.def_143 (or .def_128 .def_131)))
(let ((.def_145 (and .def_143 .def_144)))
(let ((.def_147 (or .def_145 .def_146)))
(let ((.def_152 (and .def_147 .def_151)))
(let ((.def_142 (and .def_48 .def_115)))
(let ((.def_153 (and .def_142 .def_152)))
(let ((.def_171 (or .def_153 .def_170)))
(let ((.def_107 (* train1.speed__AT0 train1.delta__AT0)))
(let ((.def_102 (* train1.delta__AT0 train1.delta__AT0)))
(let ((.def_106 (* .def_102 .def_105)))
(let ((.def_108 (+ .def_106 .def_107)))
(let ((.def_109 (+ train1.front_position__AT0 .def_108)))
(let ((.def_122 (<= .def_109 0.0 )))
(let ((.def_136 (not .def_122)))
(let ((.def_120 (<= train1.front_position__AT0 0.0 )))
(let ((.def_137 (or .def_120 .def_136)))
(let ((.def_54 (<= 0.0 train1.front_position__AT0)))
(let ((.def_134 (not .def_54)))
(let ((.def_110 (<= 0.0 .def_109)))
(let ((.def_135 (or .def_110 .def_134)))
(let ((.def_138 (and .def_135 .def_137)))
(let ((.def_132 (or .def_129 .def_131)))
(let ((.def_133 (not .def_132)))
(let ((.def_139 (or .def_133 .def_138)))
(let ((.def_124 (not .def_110)))
(let ((.def_125 (or .def_54 .def_124)))
(let ((.def_121 (not .def_120)))
(let ((.def_123 (or .def_121 .def_122)))
(let ((.def_126 (and .def_123 .def_125)))
(let ((.def_118 (or .def_116 .def_117)))
(let ((.def_119 (not .def_118)))
(let ((.def_127 (or .def_119 .def_126)))
(let ((.def_140 (and .def_127 .def_139)))
(let ((.def_111 (and .def_54 .def_110)))
(let ((.def_141 (and .def_111 .def_140)))
(let ((.def_172 (and .def_141 .def_171)))
(let ((.def_190 (and .def_172 .def_189)))
(let ((.def_209 (and .def_190 .def_208)))
(let ((.def_73 (<= train1.acceleration__AT0 (/ 7 10))))
(let ((.def_72 (<= (- (/ 7 10)) train1.acceleration__AT0)))
(let ((.def_74 (and .def_72 .def_73)))
(let ((.def_75 (or train1.mode.0__AT0 .def_74)))
(let ((.def_65 (<= (- (/ 7 5)) train1.acceleration__AT0)))
(let ((.def_67 (and .def_65 .def_66)))
(let ((.def_29 (not train1.mode.0__AT0)))
(let ((.def_68 (or .def_29 .def_67)))
(let ((.def_76 (and .def_68 .def_75)))
(let ((.def_210 (and .def_76 .def_209)))
(let ((.def_233 (and .def_210 .def_232)))
(let ((.def_365 (and .def_233 .def_364)))
(let ((.def_86 (and .def_84 .def_85)))
(let ((.def_82 (and .def_80 .def_81)))
(let ((.def_59 (and .def_56 .def_58)))
(let ((.def_53 (and .def_48 .def_52)))
(let ((.def_55 (and .def_53 .def_54)))
(let ((.def_60 (and .def_55 .def_59)))
(let ((.def_77 (and .def_60 .def_76)))
(let ((.def_79 (and .def_77 .def_78)))
(let ((.def_83 (and .def_79 .def_82)))
(let ((.def_87 (and .def_83 .def_86)))
(let ((.def_98 (and .def_87 .def_97)))
(let ((.def_43 (= train2.timer__AT0 0.0 )))
(let ((.def_40 (= train2.speed__AT0 0.0 )))
(let ((.def_37 (= train2.front_position__AT0 400.0 )))
(let ((.def_34 (= train2.time__AT0 0.0 )))
(let ((.def_26 (= train1.timer__AT0 0.0 )))
(let ((.def_23 (= train1.speed__AT0 0.0 )))
(let ((.def_20 (= train1.front_position__AT0 0.0 )))
(let ((.def_17 (= train1.time__AT0 0.0 )))
(let ((.def_19 (and .def_17 train1.event_is_timed__AT0)))
(let ((.def_21 (and .def_19 .def_20)))
(let ((.def_24 (and .def_21 .def_23)))
(let ((.def_27 (and .def_24 .def_26)))
(let ((.def_30 (and .def_27 .def_29)))
(let ((.def_32 (and .def_30 train2.event_is_timed__AT0)))
(let ((.def_35 (and .def_32 .def_34)))
(let ((.def_38 (and .def_35 .def_37)))
(let ((.def_41 (and .def_38 .def_40)))
(let ((.def_44 (and .def_41 .def_43)))
(let ((.def_47 (and .def_44 .def_46)))
(let ((.def_99 (and .def_47 .def_98)))
(let ((.def_11 (* (- 1.0) train2.front_position__AT0)))
(let ((.def_12 (+ train1.front_position__AT0 .def_11)))
(let ((.def_13 (<= .def_12 (- 200.0) )))
(let ((.def_14 (not .def_13)))
(let ((.def_100 (and .def_14 .def_99)))
(let ((.def_366 (and .def_100 .def_365)))
.def_366)))))))))))))))))))))))))))))))))))))))))))))))))))))))))))))))))))))))))))))))))))))))))))))))))))))))))))))))))))))))))))))))))))))))))))))))))))))))))))))))))))))))))))))))))))))))))))))))))))))))))))))))))))))))))))))))))))))))))))))))))))))))))))))))))))))))))))))))))))))))))))))))))))))))))))))))))))))))))))))))))))))))))
(check-sat)
(exit)
